c File: flat50_3_0.col
c
c SOURCE: Joseph Culberson (joe@cs.ualberta.ca)
c DESCRIPTION: Quasi-random coloring problem
c              generated with flatness = 0
c                             probability = 0.139
c                             known coloring = 3
c                             random seed = 1006
c              Creation Date:  Tue Jun  9 11:58:55 1998
c Maximum degree = 7 Minimum degree = 1
c p edge 50 115
c cnf created by edge2cnf
p cnf 150 545
-1 -2 0
-1 -3 0
-2 -3 0
1 2 3 0
-4 -5 0
-4 -6 0
-5 -6 0
4 5 6 0
-7 -8 0
-7 -9 0
-8 -9 0
7 8 9 0
-10 -11 0
-10 -12 0
-11 -12 0
10 11 12 0
-13 -14 0
-13 -15 0
-14 -15 0
13 14 15 0
-16 -17 0
-16 -18 0
-17 -18 0
16 17 18 0
-19 -20 0
-19 -21 0
-20 -21 0
19 20 21 0
-22 -23 0
-22 -24 0
-23 -24 0
22 23 24 0
-25 -26 0
-25 -27 0
-26 -27 0
25 26 27 0
-28 -29 0
-28 -30 0
-29 -30 0
28 29 30 0
-31 -32 0
-31 -33 0
-32 -33 0
31 32 33 0
-34 -35 0
-34 -36 0
-35 -36 0
34 35 36 0
-37 -38 0
-37 -39 0
-38 -39 0
37 38 39 0
-40 -41 0
-40 -42 0
-41 -42 0
40 41 42 0
-43 -44 0
-43 -45 0
-44 -45 0
43 44 45 0
-46 -47 0
-46 -48 0
-47 -48 0
46 47 48 0
-49 -50 0
-49 -51 0
-50 -51 0
49 50 51 0
-52 -53 0
-52 -54 0
-53 -54 0
52 53 54 0
-55 -56 0
-55 -57 0
-56 -57 0
55 56 57 0
-58 -59 0
-58 -60 0
-59 -60 0
58 59 60 0
-61 -62 0
-61 -63 0
-62 -63 0
61 62 63 0
-64 -65 0
-64 -66 0
-65 -66 0
64 65 66 0
-67 -68 0
-67 -69 0
-68 -69 0
67 68 69 0
-70 -71 0
-70 -72 0
-71 -72 0
70 71 72 0
-73 -74 0
-73 -75 0
-74 -75 0
73 74 75 0
-76 -77 0
-76 -78 0
-77 -78 0
76 77 78 0
-79 -80 0
-79 -81 0
-80 -81 0
79 80 81 0
-82 -83 0
-82 -84 0
-83 -84 0
82 83 84 0
-85 -86 0
-85 -87 0
-86 -87 0
85 86 87 0
-88 -89 0
-88 -90 0
-89 -90 0
88 89 90 0
-91 -92 0
-91 -93 0
-92 -93 0
91 92 93 0
-94 -95 0
-94 -96 0
-95 -96 0
94 95 96 0
-97 -98 0
-97 -99 0
-98 -99 0
97 98 99 0
-100 -101 0
-100 -102 0
-101 -102 0
100 101 102 0
-103 -104 0
-103 -105 0
-104 -105 0
103 104 105 0
-106 -107 0
-106 -108 0
-107 -108 0
106 107 108 0
-109 -110 0
-109 -111 0
-110 -111 0
109 110 111 0
-112 -113 0
-112 -114 0
-113 -114 0
112 113 114 0
-115 -116 0
-115 -117 0
-116 -117 0
115 116 117 0
-118 -119 0
-118 -120 0
-119 -120 0
118 119 120 0
-121 -122 0
-121 -123 0
-122 -123 0
121 122 123 0
-124 -125 0
-124 -126 0
-125 -126 0
124 125 126 0
-127 -128 0
-127 -129 0
-128 -129 0
127 128 129 0
-130 -131 0
-130 -132 0
-131 -132 0
130 131 132 0
-133 -134 0
-133 -135 0
-134 -135 0
133 134 135 0
-136 -137 0
-136 -138 0
-137 -138 0
136 137 138 0
-139 -140 0
-139 -141 0
-140 -141 0
139 140 141 0
-142 -143 0
-142 -144 0
-143 -144 0
142 143 144 0
-145 -146 0
-145 -147 0
-146 -147 0
145 146 147 0
-148 -149 0
-148 -150 0
-149 -150 0
148 149 150 0
-52 -1 0
-53 -2 0
-54 -3 0
-88 -1 0
-89 -2 0
-90 -3 0
-103 -1 0
-104 -2 0
-105 -3 0
-67 -4 0
-68 -5 0
-69 -6 0
-76 -4 0
-77 -5 0
-78 -6 0
-109 -4 0
-110 -5 0
-111 -6 0
-124 -4 0
-125 -5 0
-126 -6 0
-136 -4 0
-137 -5 0
-138 -6 0
-58 -7 0
-59 -8 0
-60 -9 0
-70 -7 0
-71 -8 0
-72 -9 0
-82 -7 0
-83 -8 0
-84 -9 0
-124 -7 0
-125 -8 0
-126 -9 0
-67 -10 0
-68 -11 0
-69 -12 0
-82 -10 0
-83 -11 0
-84 -12 0
-97 -10 0
-98 -11 0
-99 -12 0
-73 -13 0
-74 -14 0
-75 -15 0
-100 -13 0
-101 -14 0
-102 -15 0
-109 -13 0
-110 -14 0
-111 -15 0
-121 -13 0
-122 -14 0
-123 -15 0
-58 -16 0
-59 -17 0
-60 -18 0
-67 -16 0
-68 -17 0
-69 -18 0
-79 -16 0
-80 -17 0
-81 -18 0
-109 -16 0
-110 -17 0
-111 -18 0
-127 -16 0
-128 -17 0
-129 -18 0
-133 -16 0
-134 -17 0
-135 -18 0
-145 -16 0
-146 -17 0
-147 -18 0
-79 -19 0
-80 -20 0
-81 -21 0
-91 -19 0
-92 -20 0
-93 -21 0
-97 -19 0
-98 -20 0
-99 -21 0
-136 -19 0
-137 -20 0
-138 -21 0
-148 -19 0
-149 -20 0
-150 -21 0
-79 -22 0
-80 -23 0
-81 -24 0
-97 -22 0
-98 -23 0
-99 -24 0
-106 -22 0
-107 -23 0
-108 -24 0
-136 -22 0
-137 -23 0
-138 -24 0
-76 -25 0
-77 -26 0
-78 -27 0
-103 -25 0
-104 -26 0
-105 -27 0
-130 -25 0
-131 -26 0
-132 -27 0
-133 -25 0
-134 -26 0
-135 -27 0
-109 -28 0
-110 -29 0
-111 -30 0
-112 -28 0
-113 -29 0
-114 -30 0
-133 -28 0
-134 -29 0
-135 -30 0
-55 -31 0
-56 -32 0
-57 -33 0
-58 -31 0
-59 -32 0
-60 -33 0
-64 -31 0
-65 -32 0
-66 -33 0
-127 -31 0
-128 -32 0
-129 -33 0
-148 -31 0
-149 -32 0
-150 -33 0
-52 -34 0
-53 -35 0
-54 -36 0
-73 -34 0
-74 -35 0
-75 -36 0
-79 -34 0
-80 -35 0
-81 -36 0
-100 -34 0
-101 -35 0
-102 -36 0
-130 -34 0
-131 -35 0
-132 -36 0
-139 -34 0
-140 -35 0
-141 -36 0
-148 -34 0
-149 -35 0
-150 -36 0
-52 -37 0
-53 -38 0
-54 -39 0
-91 -37 0
-92 -38 0
-93 -39 0
-94 -37 0
-95 -38 0
-96 -39 0
-103 -37 0
-104 -38 0
-105 -39 0
-118 -37 0
-119 -38 0
-120 -39 0
-121 -37 0
-122 -38 0
-123 -39 0
-139 -37 0
-140 -38 0
-141 -39 0
-55 -40 0
-56 -41 0
-57 -42 0
-82 -40 0
-83 -41 0
-84 -42 0
-94 -40 0
-95 -41 0
-96 -42 0
-97 -40 0
-98 -41 0
-99 -42 0
-127 -40 0
-128 -41 0
-129 -42 0
-142 -40 0
-143 -41 0
-144 -42 0
-61 -43 0
-62 -44 0
-63 -45 0
-70 -43 0
-71 -44 0
-72 -45 0
-106 -43 0
-107 -44 0
-108 -45 0
-136 -43 0
-137 -44 0
-138 -45 0
-52 -46 0
-53 -47 0
-54 -48 0
-112 -46 0
-113 -47 0
-114 -48 0
-139 -46 0
-140 -47 0
-141 -48 0
-70 -49 0
-71 -50 0
-72 -51 0
-73 -49 0
-74 -50 0
-75 -51 0
-103 -49 0
-104 -50 0
-105 -51 0
-130 -49 0
-131 -50 0
-132 -51 0
-112 -52 0
-113 -53 0
-114 -54 0
-139 -52 0
-140 -53 0
-141 -54 0
-124 -55 0
-125 -56 0
-126 -57 0
-115 -58 0
-116 -59 0
-117 -60 0
-142 -58 0
-143 -59 0
-144 -60 0
-121 -61 0
-122 -62 0
-123 -63 0
-130 -61 0
-131 -62 0
-132 -63 0
-106 -64 0
-107 -65 0
-108 -66 0
-118 -64 0
-119 -65 0
-120 -66 0
-121 -64 0
-122 -65 0
-123 -66 0
-139 -64 0
-140 -65 0
-141 -66 0
-124 -67 0
-125 -68 0
-126 -69 0
-136 -67 0
-137 -68 0
-138 -69 0
-118 -70 0
-119 -71 0
-120 -72 0
-127 -70 0
-128 -71 0
-129 -72 0
-130 -70 0
-131 -71 0
-132 -72 0
-148 -70 0
-149 -71 0
-150 -72 0
-118 -76 0
-119 -77 0
-120 -78 0
-130 -76 0
-131 -77 0
-132 -78 0
-136 -76 0
-137 -77 0
-138 -78 0
-106 -79 0
-107 -80 0
-108 -81 0
-121 -82 0
-122 -83 0
-123 -84 0
-127 -82 0
-128 -83 0
-129 -84 0
-148 -82 0
-149 -83 0
-150 -84 0
-106 -85 0
-107 -86 0
-108 -87 0
-109 -85 0
-110 -86 0
-111 -87 0
-139 -85 0
-140 -86 0
-141 -87 0
-127 -91 0
-128 -92 0
-129 -93 0
-103 -94 0
-104 -95 0
-105 -96 0
-112 -94 0
-113 -95 0
-114 -96 0
-124 -94 0
-125 -95 0
-126 -96 0
-136 -94 0
-137 -95 0
-138 -96 0
-118 -97 0
-119 -98 0
-120 -99 0
-112 -100 0
-113 -101 0
-114 -102 0
-121 -100 0
-122 -101 0
-123 -102 0
-124 -100 0
-125 -101 0
-126 -102 0
-130 -100 0
-131 -101 0
-132 -102 0
